These examples are a "translation" of some of the Mosel 
examples into Python using the Xpress Python interface.
Mosel is not required to run them, however Python and the
Xpress Python module are necessary.

Enjoy!
-- The FICO Xpress dev. team
